2000 625
1 126
1 26
1 6
1 2
2 127
2 27
2 7
2 3
3 128
3 28
3 8
3 4
4 129
4 29
4 9
4 5
5 130
5 30
5 10
6 131
6 31
6 11
6 7
7 132
7 32
7 12
7 8
8 133
8 33
8 13
8 9
9 134
9 34
9 14
9 10
10 135
10 35
10 15
11 136
11 36
11 16
11 12
12 137
12 37
12 17
12 13
13 138
13 38
13 18
13 14
14 139
14 39
14 19
14 15
15 140
15 40
15 20
16 141
16 41
16 21
16 17
17 142
17 42
17 22
17 18
18 143
18 43
18 23
18 19
19 144
19 44
19 24
19 20
20 145
20 45
20 25
21 146
21 46
21 22
22 147
22 47
22 23
23 148
23 48
23 24
24 149
24 49
24 25
25 150
25 50
26 151
26 51
26 31
26 27
27 152
27 52
27 32
27 28
28 153
28 53
28 33
28 29
29 154
29 54
29 34
29 30
30 155
30 55
30 35
31 156
31 56
31 36
31 32
32 157
32 57
32 37
32 33
33 158
33 58
33 38
33 34
34 159
34 59
34 39
34 35
35 160
35 60
35 40
36 161
36 61
36 41
36 37
37 162
37 62
37 42
37 38
38 163
38 63
38 43
38 39
39 164
39 64
39 44
39 40
40 165
40 65
40 45
41 166
41 66
41 46
41 42
42 167
42 67
42 47
42 43
43 168
43 68
43 48
43 44
44 169
44 69
44 49
44 45
45 170
45 70
45 50
46 171
46 71
46 47
47 172
47 72
47 48
48 173
48 73
48 49
49 174
49 74
49 50
50 175
50 75
51 176
51 76
51 56
51 52
52 177
52 77
52 57
52 53
53 178
53 78
53 58
53 54
54 179
54 79
54 59
54 55
55 180
55 80
55 60
56 181
56 81
56 61
56 57
57 182
57 82
57 62
57 58
58 183
58 83
58 63
58 59
59 184
59 84
59 64
59 60
60 185
60 85
60 65
61 186
61 86
61 66
61 62
62 187
62 87
62 67
62 63
63 188
63 88
63 68
63 64
64 189
64 89
64 69
64 65
65 190
65 90
65 70
66 191
66 91
66 71
66 67
67 192
67 92
67 72
67 68
68 193
68 93
68 73
68 69
69 194
69 94
69 74
69 70
70 195
70 95
70 75
71 196
71 96
71 72
72 197
72 97
72 73
73 198
73 98
73 74
74 199
74 99
74 75
75 200
75 100
76 201
76 101
76 81
76 77
77 202
77 102
77 82
77 78
78 203
78 103
78 83
78 79
79 204
79 104
79 84
79 80
80 205
80 105
80 85
81 206
81 106
81 86
81 82
82 207
82 107
82 87
82 83
83 208
83 108
83 88
83 84
84 209
84 109
84 89
84 85
85 210
85 110
85 90
86 211
86 111
86 91
86 87
87 212
87 112
87 92
87 88
88 213
88 113
88 93
88 89
89 214
89 114
89 94
89 90
90 215
90 115
90 95
91 216
91 116
91 96
91 92
92 217
92 117
92 97
92 93
93 218
93 118
93 98
93 94
94 219
94 119
94 99
94 95
95 220
95 120
95 100
96 221
96 121
96 97
97 222
97 122
97 98
98 223
98 123
98 99
99 224
99 124
99 100
100 225
100 125
101 226
101 106
101 102
102 227
102 107
102 103
103 228
103 108
103 104
104 229
104 109
104 105
105 230
105 110
106 231
106 111
106 107
107 232
107 112
107 108
108 233
108 113
108 109
109 234
109 114
109 110
110 235
110 115
111 236
111 116
111 112
112 237
112 117
112 113
113 238
113 118
113 114
114 239
114 119
114 115
115 240
115 120
116 241
116 121
116 117
117 242
117 122
117 118
118 243
118 123
118 119
119 244
119 124
119 120
120 245
120 125
121 246
121 122
122 247
122 123
123 248
123 124
124 249
124 125
125 250
126 251
126 151
126 131
126 127
127 252
127 152
127 132
127 128
128 253
128 153
128 133
128 129
129 254
129 154
129 134
129 130
130 255
130 155
130 135
131 256
131 156
131 136
131 132
132 257
132 157
132 137
132 133
133 258
133 158
133 138
133 134
134 259
134 159
134 139
134 135
135 260
135 160
135 140
136 261
136 161
136 141
136 137
137 262
137 162
137 142
137 138
138 263
138 163
138 143
138 139
139 264
139 164
139 144
139 140
140 265
140 165
140 145
141 266
141 166
141 146
141 142
142 267
142 167
142 147
142 143
143 268
143 168
143 148
143 144
144 269
144 169
144 149
144 145
145 270
145 170
145 150
146 271
146 171
146 147
147 272
147 172
147 148
148 273
148 173
148 149
149 274
149 174
149 150
150 275
150 175
151 276
151 176
151 156
151 152
152 277
152 177
152 157
152 153
153 278
153 178
153 158
153 154
154 279
154 179
154 159
154 155
155 280
155 180
155 160
156 281
156 181
156 161
156 157
157 282
157 182
157 162
157 158
158 283
158 183
158 163
158 159
159 284
159 184
159 164
159 160
160 285
160 185
160 165
161 286
161 186
161 166
161 162
162 287
162 187
162 167
162 163
163 288
163 188
163 168
163 164
164 289
164 189
164 169
164 165
165 290
165 190
165 170
166 291
166 191
166 171
166 167
167 292
167 192
167 172
167 168
168 293
168 193
168 173
168 169
169 294
169 194
169 174
169 170
170 295
170 195
170 175
171 296
171 196
171 172
172 297
172 197
172 173
173 298
173 198
173 174
174 299
174 199
174 175
175 300
175 200
176 301
176 201
176 181
176 177
177 302
177 202
177 182
177 178
178 303
178 203
178 183
178 179
179 304
179 204
179 184
179 180
180 305
180 205
180 185
181 306
181 206
181 186
181 182
182 307
182 207
182 187
182 183
183 308
183 208
183 188
183 184
184 309
184 209
184 189
184 185
185 310
185 210
185 190
186 311
186 211
186 191
186 187
187 312
187 212
187 192
187 188
188 313
188 213
188 193
188 189
189 314
189 214
189 194
189 190
190 315
190 215
190 195
191 316
191 216
191 196
191 192
192 317
192 217
192 197
192 193
193 318
193 218
193 198
193 194
194 319
194 219
194 199
194 195
195 320
195 220
195 200
196 321
196 221
196 197
197 322
197 222
197 198
198 323
198 223
198 199
199 324
199 224
199 200
200 325
200 225
201 326
201 226
201 206
201 202
202 327
202 227
202 207
202 203
203 328
203 228
203 208
203 204
204 329
204 229
204 209
204 205
205 330
205 230
205 210
206 331
206 231
206 211
206 207
207 332
207 232
207 212
207 208
208 333
208 233
208 213
208 209
209 334
209 234
209 214
209 210
210 335
210 235
210 215
211 336
211 236
211 216
211 212
212 337
212 237
212 217
212 213
213 338
213 238
213 218
213 214
214 339
214 239
214 219
214 215
215 340
215 240
215 220
216 341
216 241
216 221
216 217
217 342
217 242
217 222
217 218
218 343
218 243
218 223
218 219
219 344
219 244
219 224
219 220
220 345
220 245
220 225
221 346
221 246
221 222
222 347
222 247
222 223
223 348
223 248
223 224
224 349
224 249
224 225
225 350
225 250
226 351
226 231
226 227
227 352
227 232
227 228
228 353
228 233
228 229
229 354
229 234
229 230
230 355
230 235
231 356
231 236
231 232
232 357
232 237
232 233
233 358
233 238
233 234
234 359
234 239
234 235
235 360
235 240
236 361
236 241
236 237
237 362
237 242
237 238
238 363
238 243
238 239
239 364
239 244
239 240
240 365
240 245
241 366
241 246
241 242
242 367
242 247
242 243
243 368
243 248
243 244
244 369
244 249
244 245
245 370
245 250
246 371
246 247
247 372
247 248
248 373
248 249
249 374
249 250
250 375
251 376
251 276
251 256
251 252
252 377
252 277
252 257
252 253
253 378
253 278
253 258
253 254
254 379
254 279
254 259
254 255
255 380
255 280
255 260
256 381
256 281
256 261
256 257
257 382
257 282
257 262
257 258
258 383
258 283
258 263
258 259
259 384
259 284
259 264
259 260
260 385
260 285
260 265
261 386
261 286
261 266
261 262
262 387
262 287
262 267
262 263
263 388
263 288
263 268
263 264
264 389
264 289
264 269
264 265
265 390
265 290
265 270
266 391
266 291
266 271
266 267
267 392
267 292
267 272
267 268
268 393
268 293
268 273
268 269
269 394
269 294
269 274
269 270
270 395
270 295
270 275
271 396
271 296
271 272
272 397
272 297
272 273
273 398
273 298
273 274
274 399
274 299
274 275
275 400
275 300
276 401
276 301
276 281
276 277
277 402
277 302
277 282
277 278
278 403
278 303
278 283
278 279
279 404
279 304
279 284
279 280
280 405
280 305
280 285
281 406
281 306
281 286
281 282
282 407
282 307
282 287
282 283
283 408
283 308
283 288
283 284
284 409
284 309
284 289
284 285
285 410
285 310
285 290
286 411
286 311
286 291
286 287
287 412
287 312
287 292
287 288
288 413
288 313
288 293
288 289
289 414
289 314
289 294
289 290
290 415
290 315
290 295
291 416
291 316
291 296
291 292
292 417
292 317
292 297
292 293
293 418
293 318
293 298
293 294
294 419
294 319
294 299
294 295
295 420
295 320
295 300
296 421
296 321
296 297
297 422
297 322
297 298
298 423
298 323
298 299
299 424
299 324
299 300
300 425
300 325
301 426
301 326
301 306
301 302
302 427
302 327
302 307
302 303
303 428
303 328
303 308
303 304
304 429
304 329
304 309
304 305
305 430
305 330
305 310
306 431
306 331
306 311
306 307
307 432
307 332
307 312
307 308
308 433
308 333
308 313
308 309
309 434
309 334
309 314
309 310
310 435
310 335
310 315
311 436
311 336
311 316
311 312
312 437
312 337
312 317
312 313
313 438
313 338
313 318
313 314
314 439
314 339
314 319
314 315
315 440
315 340
315 320
316 441
316 341
316 321
316 317
317 442
317 342
317 322
317 318
318 443
318 343
318 323
318 319
319 444
319 344
319 324
319 320
320 445
320 345
320 325
321 446
321 346
321 322
322 447
322 347
322 323
323 448
323 348
323 324
324 449
324 349
324 325
325 450
325 350
326 451
326 351
326 331
326 327
327 452
327 352
327 332
327 328
328 453
328 353
328 333
328 329
329 454
329 354
329 334
329 330
330 455
330 355
330 335
331 456
331 356
331 336
331 332
332 457
332 357
332 337
332 333
333 458
333 358
333 338
333 334
334 459
334 359
334 339
334 335
335 460
335 360
335 340
336 461
336 361
336 341
336 337
337 462
337 362
337 342
337 338
338 463
338 363
338 343
338 339
339 464
339 364
339 344
339 340
340 465
340 365
340 345
341 466
341 366
341 346
341 342
342 467
342 367
342 347
342 343
343 468
343 368
343 348
343 344
344 469
344 369
344 349
344 345
345 470
345 370
345 350
346 471
346 371
346 347
347 472
347 372
347 348
348 473
348 373
348 349
349 474
349 374
349 350
350 475
350 375
351 476
351 356
351 352
352 477
352 357
352 353
353 478
353 358
353 354
354 479
354 359
354 355
355 480
355 360
356 481
356 361
356 357
357 482
357 362
357 358
358 483
358 363
358 359
359 484
359 364
359 360
360 485
360 365
361 486
361 366
361 362
362 487
362 367
362 363
363 488
363 368
363 364
364 489
364 369
364 365
365 490
365 370
366 491
366 371
366 367
367 492
367 372
367 368
368 493
368 373
368 369
369 494
369 374
369 370
370 495
370 375
371 496
371 372
372 497
372 373
373 498
373 374
374 499
374 375
375 500
376 501
376 401
376 381
376 377
377 502
377 402
377 382
377 378
378 503
378 403
378 383
378 379
379 504
379 404
379 384
379 380
380 505
380 405
380 385
381 506
381 406
381 386
381 382
382 507
382 407
382 387
382 383
383 508
383 408
383 388
383 384
384 509
384 409
384 389
384 385
385 510
385 410
385 390
386 511
386 411
386 391
386 387
387 512
387 412
387 392
387 388
388 513
388 413
388 393
388 389
389 514
389 414
389 394
389 390
390 515
390 415
390 395
391 516
391 416
391 396
391 392
392 517
392 417
392 397
392 393
393 518
393 418
393 398
393 394
394 519
394 419
394 399
394 395
395 520
395 420
395 400
396 521
396 421
396 397
397 522
397 422
397 398
398 523
398 423
398 399
399 524
399 424
399 400
400 525
400 425
401 526
401 426
401 406
401 402
402 527
402 427
402 407
402 403
403 528
403 428
403 408
403 404
404 529
404 429
404 409
404 405
405 530
405 430
405 410
406 531
406 431
406 411
406 407
407 532
407 432
407 412
407 408
408 533
408 433
408 413
408 409
409 534
409 434
409 414
409 410
410 535
410 435
410 415
411 536
411 436
411 416
411 412
412 537
412 437
412 417
412 413
413 538
413 438
413 418
413 414
414 539
414 439
414 419
414 415
415 540
415 440
415 420
416 541
416 441
416 421
416 417
417 542
417 442
417 422
417 418
418 543
418 443
418 423
418 419
419 544
419 444
419 424
419 420
420 545
420 445
420 425
421 546
421 446
421 422
422 547
422 447
422 423
423 548
423 448
423 424
424 549
424 449
424 425
425 550
425 450
426 551
426 451
426 431
426 427
427 552
427 452
427 432
427 428
428 553
428 453
428 433
428 429
429 554
429 454
429 434
429 430
430 555
430 455
430 435
431 556
431 456
431 436
431 432
432 557
432 457
432 437
432 433
433 558
433 458
433 438
433 434
434 559
434 459
434 439
434 435
435 560
435 460
435 440
436 561
436 461
436 441
436 437
437 562
437 462
437 442
437 438
438 563
438 463
438 443
438 439
439 564
439 464
439 444
439 440
440 565
440 465
440 445
441 566
441 466
441 446
441 442
442 567
442 467
442 447
442 443
443 568
443 468
443 448
443 444
444 569
444 469
444 449
444 445
445 570
445 470
445 450
446 571
446 471
446 447
447 572
447 472
447 448
448 573
448 473
448 449
449 574
449 474
449 450
450 575
450 475
451 576
451 476
451 456
451 452
452 577
452 477
452 457
452 453
453 578
453 478
453 458
453 454
454 579
454 479
454 459
454 455
455 580
455 480
455 460
456 581
456 481
456 461
456 457
457 582
457 482
457 462
457 458
458 583
458 483
458 463
458 459
459 584
459 484
459 464
459 460
460 585
460 485
460 465
461 586
461 486
461 466
461 462
462 587
462 487
462 467
462 463
463 588
463 488
463 468
463 464
464 589
464 489
464 469
464 465
465 590
465 490
465 470
466 591
466 491
466 471
466 467
467 592
467 492
467 472
467 468
468 593
468 493
468 473
468 469
469 594
469 494
469 474
469 470
470 595
470 495
470 475
471 596
471 496
471 472
472 597
472 497
472 473
473 598
473 498
473 474
474 599
474 499
474 475
475 600
475 500
476 601
476 481
476 477
477 602
477 482
477 478
478 603
478 483
478 479
479 604
479 484
479 480
480 605
480 485
481 606
481 486
481 482
482 607
482 487
482 483
483 608
483 488
483 484
484 609
484 489
484 485
485 610
485 490
486 611
486 491
486 487
487 612
487 492
487 488
488 613
488 493
488 489
489 614
489 494
489 490
490 615
490 495
491 616
491 496
491 492
492 617
492 497
492 493
493 618
493 498
493 494
494 619
494 499
494 495
495 620
495 500
496 621
496 497
497 622
497 498
498 623
498 499
499 624
499 500
500 625
501 526
501 506
501 502
502 527
502 507
502 503
503 528
503 508
503 504
504 529
504 509
504 505
505 530
505 510
506 531
506 511
506 507
507 532
507 512
507 508
508 533
508 513
508 509
509 534
509 514
509 510
510 535
510 515
511 536
511 516
511 512
512 537
512 517
512 513
513 538
513 518
513 514
514 539
514 519
514 515
515 540
515 520
516 541
516 521
516 517
517 542
517 522
517 518
518 543
518 523
518 519
519 544
519 524
519 520
520 545
520 525
521 546
521 522
522 547
522 523
523 548
523 524
524 549
524 525
525 550
526 551
526 531
526 527
527 552
527 532
527 528
528 553
528 533
528 529
529 554
529 534
529 530
530 555
530 535
531 556
531 536
531 532
532 557
532 537
532 533
533 558
533 538
533 534
534 559
534 539
534 535
535 560
535 540
536 561
536 541
536 537
537 562
537 542
537 538
538 563
538 543
538 539
539 564
539 544
539 540
540 565
540 545
541 566
541 546
541 542
542 567
542 547
542 543
543 568
543 548
543 544
544 569
544 549
544 545
545 570
545 550
546 571
546 547
547 572
547 548
548 573
548 549
549 574
549 550
550 575
551 576
551 556
551 552
552 577
552 557
552 553
553 578
553 558
553 554
554 579
554 559
554 555
555 580
555 560
556 581
556 561
556 557
557 582
557 562
557 558
558 583
558 563
558 559
559 584
559 564
559 560
560 585
560 565
561 586
561 566
561 562
562 587
562 567
562 563
563 588
563 568
563 564
564 589
564 569
564 565
565 590
565 570
566 591
566 571
566 567
567 592
567 572
567 568
568 593
568 573
568 569
569 594
569 574
569 570
570 595
570 575
571 596
571 572
572 597
572 573
573 598
573 574
574 599
574 575
575 600
576 601
576 581
576 577
577 602
577 582
577 578
578 603
578 583
578 579
579 604
579 584
579 580
580 605
580 585
581 606
581 586
581 582
582 607
582 587
582 583
583 608
583 588
583 584
584 609
584 589
584 585
585 610
585 590
586 611
586 591
586 587
587 612
587 592
587 588
588 613
588 593
588 589
589 614
589 594
589 590
590 615
590 595
591 616
591 596
591 592
592 617
592 597
592 593
593 618
593 598
593 594
594 619
594 599
594 595
595 620
595 600
596 621
596 597
597 622
597 598
598 623
598 599
599 624
599 600
600 625
601 606
601 602
602 607
602 603
603 608
603 604
604 609
604 605
605 610
606 611
606 607
607 612
607 608
608 613
608 609
609 614
609 610
610 615
611 616
611 612
612 617
612 613
613 618
613 614
614 619
614 615
615 620
616 621
616 617
617 622
617 618
618 623
618 619
619 624
619 620
620 625
621 622
622 623
623 624
624 625
